22603
1 1 1 0 1 1 1 1 1 1 1 1 1 1 0 0 1 0 1 1 0 1 0 1 1 1 1 1 1 1 
18 19 21 27 2 12 21 27 18 28 4 28 13 1 28 18 1 10 27 0 18 16 5 24 10 18 27 19 29 2 19 19 4 16 27 6 8 8 24 16 18 9 6 4 8 19 13 21 19 10 24 16 24 16 8 6 11 9 18 25 29 0 7 8 13 11 5 19 28 25 18 12 19 9 23 23 10 23 8 16 10 0 9 25 29 13 6 5 27 7 28 6 25 25 2 13 11 6 0 28 28 21 25 18 4 0 4 24 27 13 19 4 27 12 12 8 28 7 0 8 26 11 28 19 26 16 2 11 26 0 28 24 25 10 23 9 1 13 28 10 12 27 11 11 25 5 24 21 27 25 24 0 23 0 8 11 2 16 13 13 13 27 10 24 5 27 5 4 1 21 1 8 19 10 26 2 0 10 29 10 5 21 2 19 12 8 28 23 0 21 2 21 6 4 7 12 7 21 10 19 
